# 1.3.99.3_group0_PF00441_30-85~1.3.99.7_group0_PF00441_30-85.sdpA
# All alignment positions within 5\AA of a ligand/cat site passing the sdpA filter.  Column indices start with 0.
10
11
17
49
107
114
132
138
